25 45
548 1116 1
1415 1794 1
765 1958 1
808 993 1
512 923 1
1014 1965 1
515 1007 8
404 1731 1
761 1078 1
628 1258 1
470 1256 1
389 770 2
767 1952 1
761 879 1
440 1305 9
840 1305 1
1030 1114 1
654 953 1
475 1257 3
538 909 1
791 961 1
292 1176 1
733 1954 1
644 1073 2
726 2017 2
3000 6000 
3000 6000 
3000 6000 
3000 6000 
3000 6000 
3000 6000 
3000 6000 
3000 6000 
3000 6000 
3000 6000 
3000 6000 
3000 6000 
3000 6000 
3000 6000 
3000 6000 
3000 6000 
3000 6000 
3000 6000 
3000 6000 
3000 6000 
3000 6000 
3000 6000 
3000 6000 
3000 6000 
3000 6000 
3000 6000 
3000 6000 
3000 6000 
3000 6000 
3000 6000 
3000 6000 
3000 6000 
3000 6000 
3000 6000 
3000 6000 
3000 6000 
3000 6000 
3000 6000 
3000 6000 
3000 6000 
3000 6000 
3000 6000 
3000 6000 
3000 6000 
3000 6000 
